##------CONJUNTOS
set D := D1 D2 D3 D4;
set K := 1 2;

set I := F1 F2 F3 F4 F5 F6 F7 F8 F9 F10 F11 F12 F13 F14 F15 F16;

# F1 -> Excel 594, Comuna 5
# F2 -> Excel 599, Comuna 5
# F3 -> Excel 597, Comuna 5
# F4 -> Excel 596, Comuna 5
# F5 -> Excel 411, Comuna 4
# F6 -> Excel 416, Comuna 4
# F7 -> Excel 405, Comuna 4
# F8 -> Excel 407, Comuna 4
# F9 -> Excel 1775, Comuna 17
# F10 -> Excel 1702, Comuna 17
# F11 -> Excel 1705, Comuna 17
# F12 -> Excel 1784, Comuna 17
# F13 -> Excel 804, Comuna 8
# F14 -> Excel 801, Comuna 8
# F15 -> Excel 806, Comuna 8
# F16 -> Excel 812, Comuna 8

# Clústeres
set C := C1 C2 C3 C4;
set IC[C1] := F1 F2 F3 F4;
set IC[C2] := F5 F6 F7 F8;
set IC[C3] := F9 F10 F11 F12;
set IC[C4] := F13 F14 F15 F16;

# Número de vehículos por tipo y depósito
set R[D1,1] := V1 V2 V3 V4;
set R[D1,2] := K1 K2;
set R[D2,1] := V5 V6 V7 V8;
set R[D2,2] := K3;
set R[D3,1] := V9 V10 V11 V12;
set R[D3,2] := K4;
set R[D4,1] := V13 V14 V15 V16;
set R[D4,2] := K5 K6;

##------PARAMETROS GLOBALES
param Vel := 25;

##------CAPACIDAD DE VEHÍCULOS (agentes que pueden transportar)
param q :=
1 5
2 10
;

##------POLICÍAS DISPONIBLES en cada depósito
param h :=
D1 40
D2 30
D3 30
D4 40
;

##------VEHÍCULOS DISPONIBLES por tipo y depósito
param v:
	1	2 :=
D1	4	2
D2	4	1
D3	4	1
D4	4	2
;

##-----DISTANCIAS ENTRE NODOS [km]
param dist:
	F1	F2	F3	F4	F5	F6	F7	F8	F9	F10	F11	F12	F13	F14	F15	F16	D1	D2	D3	D4 :=
F1	0	2.33	2.03	1.6	3.23	3.44	3.14	4.41	14.44	11.07	14.76	12.06	6.12	6.5	5.54	5.22	6.7	1.72	11.48	7.45
F2	2.33	0	1.45	1.68	3.6	2.87	3.23	4.4	13.29	10.17	13.71	11.07	5.2	5.66	4.72	4.26	6.23	2.05	10.89	6.07
F3	2.03	1.45	0	1.44	3.11	2.61	2.78	3.99	13.38	10.12	13.74	11.07	5.15	5.56	4.61	4.22	5.98	2.07	10.7	6.4
F4	1.6	1.68	1.44	0	3.28	3.06	3.04	4.3	13.88	10.61	14.24	11.56	5.64	6.05	5.1	4.71	6.41	1.62	11.15	6.8
F5	3.23	3.6	3.11	3.28	0	2.57	1.49	2.24	13.34	9.52	13.43	10.67	4.92	5.12	4.26	4.26	4.78	3.88	9.53	7.6
F6	3.44	2.87	2.61	3.06	2.57	0	2.02	2.67	12.08	8.57	12.32	9.6	3.66	4.01	3.06	2.82	4.33	3.72	9.04	5.98
F7	3.14	3.23	2.78	3.04	1.49	2.02	0	2.22	12.93	9.2	13.06	10.32	4.48	4.73	3.83	3.76	4.59	3.69	9.37	7.05
F8	4.41	4.4	3.99	4.3	2.24	2.67	2.22	0	12.3	8.32	12.29	9.53	4.05	4.12	3.41	3.63	3.51	4.96	8.23	7.33
F9	14.44	13.29	13.38	13.88	13.34	12.08	12.93	12.3	0	5.44	2.54	4.03	9.39	9.16	10.04	10.21	10.0	14.4	7.6	9.17
F10	11.07	10.17	10.12	10.61	9.52	8.57	9.2	8.32	5.44	0	4.99	2.35	5.92	5.51	6.47	6.86	5.82	11.23	3.56	7.72
F11	14.76	13.71	13.74	14.24	13.43	12.32	13.06	12.29	2.54	4.99	0	3.7	9.6	9.28	10.22	10.49	9.84	14.81	6.66	10.05
F12	12.06	11.07	11.07	11.56	10.67	9.6	10.32	9.53	4.03	2.35	3.7	0	6.89	6.55	7.49	7.8	7.1	12.15	4.69	7.93
F13	6.12	5.2	5.15	5.64	4.92	3.66	4.48	4.05	9.39	5.92	9.6	6.89	0	1.48	1.61	1.89	3.01	6.25	6.82	4.85
F14	6.5	5.66	5.56	6.05	5.12	4.01	4.73	4.12	9.16	5.51	9.28	6.55	1.48	0	1.9	2.37	2.62	6.68	6.3	5.25
F15	5.54	4.72	4.61	5.1	4.26	3.06	3.83	3.41	10.04	6.47	10.22	7.49	1.61	1.9	0	1.59	2.87	5.73	7.15	5.2
F16	5.22	4.26	4.22	4.71	4.26	2.82	3.76	3.63	10.21	6.86	10.49	7.8	1.89	2.37	1.59	0	3.51	5.31	7.71	4.72
D1	6.7	6.23	5.98	6.41	4.78	4.33	4.59	3.51	10.0	5.82	9.84	7.1	3.01	2.62	2.87	3.51	0	7.09	5.73	6.9
D2	1.72	2.05	2.07	1.62	3.88	3.72	3.69	4.96	14.4	11.23	14.81	12.15	6.25	6.68	5.73	5.31	7.09	0	11.82	7.08
D3	11.48	10.89	10.7	11.15	9.53	9.04	9.37	8.23	7.6	3.56	6.66	4.69	6.82	6.3	7.15	7.71	5.73	11.82	0	9.66
D4	7.45	6.07	6.4	6.8	7.6	5.98	7.05	7.33	9.17	7.72	10.05	7.93	4.85	5.25	5.2	4.72	6.9	7.08	9.66	0
;

#### DEMANDA DE POLICÍAS (por nodo i)
param dem :=
F1 25
F2 25
F3 100
F4 125
F5 25
F6 75
F7 125
F8 50
F9 125
F10 125
F11 50
F12 100
F13 100
F14 100
F15 100
F16 125
;

#### DEMANDA DE VEHÍCULOS (por tipo)
param mu:
    1   2 :=
 F1  0  1
 F2  0  1
 F3  0  3
 F4  0  2
 F5  0  1
 F6  0  2
 F7  0  3
 F8  0  2
 F9  0  2
 F10  0  2
 F11  0  2
 F12  0  3
 F13  0  2
 F14  0  2
 F15  0  2
 F16  0  3
;

#### TIEMPOS DE SERVICIO [horas]
param s :=
F1 0.50
F2 0.42
F3 1.65
F4 2.00
F5 0.36
F6 1.41
F7 2.22
F8 0.88
F9 2.03
F10 2.44
F11 0.77
F12 1.87
F13 1.99
F14 1.72
F15 1.84
F16 2.32
;

#### VENTANAS DE TIEMPO [horas]
param alpha :=
F1 9
F2 9
F3 14
F4 10
F5 6
F6 11
F7 9
F8 14
F9 11
F10 9
F11 13
F12 9
F13 9
F14 14
F15 7
F16 12
;

param beta :=
F1 15
F2 18
F3 21
F4 17
F5 16
F6 21
F7 13
F8 24
F9 20
F10 14
F11 20
F12 16
F13 17
F14 23
F15 13
F16 20
;

#### PRIORIDAD DE LOS NODOS
param P :=
F1 0.231
F2 0.179
F3 0.345
F4 0.363
F5 0.448
F6 0.359
F7 0.324
F8 0.402
F9 0.257
F10 0.286
F11 0.317
F12 0.380
F13 0.245
F14 0.361
F15 0.310
F16 0.271
;

